4 10 18 15 6 11 14 0 12 9 19 5 8 2 17 1 7 13 16 3  
10 6 15 4 11 18 14 0 12 9 19 5 8 2 17 1 7 13 16 3  
4 10 18 15 6 11 14 0 12 9 19 5 8 7 17 1 2 13 16 3  
10 6 15 4 11 18 14 12 0 8 9 19 5 2 17 1 7 3 13 16  
10 6 15 4 11 18 14 0 8 16 9 13 12 5 17 1 2 7 3 19  
10 6 15 4 11 18 14 0 12 9 19 5 8 2 17 1 7 13 16 3  
10 6 15 4 11 18 14 12 0 9 19 5 8 2 17 1 7 13 16 3  
10 6 15 4 11 18 14 0 8 12 5 9 19 1 17 2 7 13 16 3  
10 6 15 4 11 18 14 0 8 12 5 9 19 1 17 2 7 13 16 3  
10 6 15 4 11 18 14 17 8 12 5 9 19 1 0 2 13 16 7 3  
10 6 15 4 11 18 14 17 8 12 5 9 19 16 0 1 7 3 13 2  
